\ Model Staff Scheduling Problem with Skill Level Constraints
\ LP format - for model browsing. Use MPS format to capture full model detail.
Minimize
  x[0,0] + x[0,1] + x[0,2] + x[0,3] + x[0,4] + x[0,5] + x[0,6] + x[0,7]
   + x[0,8] + x[1,0] + x[1,1] + x[1,2] + x[1,3] + x[1,4] + x[1,5] + x[1,6]
   + x[1,7] + x[1,8] + x[2,0] + x[2,1] + x[2,2] + x[2,3] + x[2,4] + x[2,5]
   + x[2,6] + x[2,7] + x[2,8] + x[3,0] + x[3,1] + x[3,2] + x[3,3] + x[3,4]
   + x[3,5] + x[3,6] + x[3,7] + x[3,8] + x[4,0] + x[4,1] + x[4,2] + x[4,3]
   + x[4,4] + x[4,5] + x[4,6] + x[4,7] + x[4,8] + x[5,0] + x[5,1] + x[5,2]
   + x[5,3] + x[5,4] + x[5,5] + x[5,6] + x[5,7] + x[5,8] + x[6,0] + x[6,1]
   + x[6,2] + x[6,3] + x[6,4] + x[6,5] + x[6,6] + x[6,7] + x[6,8] + x[7,0]
   + x[7,1] + x[7,2] + x[7,3] + x[7,4] + x[7,5] + x[7,6] + x[7,7] + x[7,8]
Subject To
 R0: x[0,0] + x[1,0] + x[2,0] + x[3,0] + x[4,0] + x[5,0] + x[6,0] + x[7,0]
   >= 1
 R1: x[0,1] + x[1,1] + x[2,1] + x[3,1] + x[4,1] + x[5,1] + x[6,1] + x[7,1]
   >= 1
 R2: x[0,2] + x[1,2] + x[2,2] + x[3,2] + x[4,2] + x[5,2] + x[6,2] + x[7,2]
   >= 1
 R3: x[0,3] + x[1,3] + x[2,3] + x[3,3] + x[4,3] + x[5,3] + x[6,3] + x[7,3]
   >= 1
 R4: x[0,4] + x[1,4] + x[2,4] + x[3,4] + x[4,4] + x[5,4] + x[6,4] + x[7,4]
   >= 1
 R5: x[0,5] + x[1,5] + x[2,5] + x[3,5] + x[4,5] + x[5,5] + x[6,5] + x[7,5]
   >= 1
 R6: x[0,6] + x[1,6] + x[2,6] + x[3,6] + x[4,6] + x[5,6] + x[6,6] + x[7,6]
   >= 1
 R7: x[0,7] + x[1,7] + x[2,7] + x[3,7] + x[4,7] + x[5,7] + x[6,7] + x[7,7]
   >= 1
 R8: x[0,8] + x[1,8] + x[2,8] + x[3,8] + x[4,8] + x[5,8] + x[6,8] + x[7,8]
   >= 1
 R9: 10.54 x[0,0] + 4.12 x[0,1] + 8 x[0,2] + 8.01 x[0,3] + 9.33 x[0,4]
   + 9.86 x[0,5] + 11.87 x[0,6] + 10.54 x[0,7] + 4.12 x[0,8] <= 1e+06
 R10: 10.54 x[1,0] + 4.12 x[1,1] + 8 x[1,2] + 8.01 x[1,3] + 9.33 x[1,4]
   + 9.86 x[1,5] + 11.87 x[1,6] + 10.54 x[1,7] + 4.12 x[1,8] <= 1e+06
 R11: 10.54 x[2,0] + 4.12 x[2,1] + 8 x[2,2] + 8.01 x[2,3] + 9.33 x[2,4]
   + 9.86 x[2,5] + 11.87 x[2,6] + 10.54 x[2,7] + 4.12 x[2,8] <= 1e+06
 R12: 10.54 x[3,0] + 4.12 x[3,1] + 8 x[3,2] + 8.01 x[3,3] + 9.33 x[3,4]
   + 9.86 x[3,5] + 11.87 x[3,6] + 10.54 x[3,7] + 4.12 x[3,8] <= 1e+06
 R13: 10.54 x[4,0] + 4.12 x[4,1] + 8 x[4,2] + 8.01 x[4,3] + 9.33 x[4,4]
   + 9.86 x[4,5] + 11.87 x[4,6] + 10.54 x[4,7] + 4.12 x[4,8] <= 1e+06
 R14: 10.54 x[5,0] + 4.12 x[5,1] + 8 x[5,2] + 8.01 x[5,3] + 9.33 x[5,4]
   + 9.86 x[5,5] + 11.87 x[5,6] + 10.54 x[5,7] + 4.12 x[5,8] <= 1e+06
 R15: 10.54 x[6,0] + 4.12 x[6,1] + 8 x[6,2] + 8.01 x[6,3] + 9.33 x[6,4]
   + 9.86 x[6,5] + 11.87 x[6,6] + 10.54 x[6,7] + 4.12 x[6,8] <= 1e+06
 R16: 10.54 x[7,0] + 4.12 x[7,1] + 8 x[7,2] + 8.01 x[7,3] + 9.33 x[7,4]
   + 9.86 x[7,5] + 11.87 x[7,6] + 10.54 x[7,7] + 4.12 x[7,8] <= 1e+06
 R17: x[0,0] <= 1
 R18: x[0,1] <= 1
 R19: x[0,2] <= 1
 R20: x[0,3] <= 1
 R21: x[0,4] <= 1
 R22: x[0,5] <= 1
 R23: x[0,6] <= 1
 R24: x[0,7] <= 1
 R25: x[0,8] <= 1
 R26: x[1,0] <= 1
 R27: x[1,1] <= 1
 R28: x[1,2] <= 1
 R29: x[1,3] <= 1
 R30: x[1,4] <= 1
 R31: x[1,5] <= 1
 R32: x[1,6] <= 1
 R33: x[1,7] <= 1
 R34: x[1,8] <= 1
 R35: x[2,0] <= 1
 R36: x[2,1] <= 1
 R37: x[2,2] <= 1
 R38: x[2,3] <= 1
 R39: x[2,4] <= 1
 R40: x[2,5] <= 1
 R41: x[2,6] <= 1
 R42: x[2,7] <= 1
 R43: x[2,8] <= 1
 R44: x[3,0] <= 1
 R45: x[3,1] <= 1
 R46: x[3,2] <= 1
 R47: x[3,3] <= 1
 R48: x[3,4] <= 1
 R49: x[3,5] <= 1
 R50: x[3,6] <= 1
 R51: x[3,7] <= 1
 R52: x[3,8] <= 1
 R53: x[4,0] <= 1
 R54: x[4,1] <= 1
 R55: x[4,2] <= 1
 R56: x[4,3] <= 1
 R57: x[4,4] <= 1
 R58: x[4,5] <= 1
 R59: x[4,6] <= 1
 R60: x[4,7] <= 1
 R61: x[4,8] <= 1
 R62: x[5,0] <= 1
 R63: x[5,1] <= 1
 R64: x[5,2] <= 1
 R65: x[5,3] <= 1
 R66: x[5,4] <= 1
 R67: x[5,5] <= 1
 R68: x[5,6] <= 1
 R69: x[5,7] <= 1
 R70: x[5,8] <= 1
 R71: x[6,0] <= 1
 R72: x[6,1] <= 1
 R73: x[6,2] <= 1
 R74: x[6,3] <= 1
 R75: x[6,4] <= 1
 R76: x[6,5] <= 1
 R77: x[6,6] <= 1
 R78: x[6,7] <= 1
 R79: x[6,8] <= 1
 R80: x[7,0] <= 1
 R81: x[7,1] <= 1
 R82: x[7,2] <= 1
 R83: x[7,3] <= 1
 R84: x[7,4] <= 1
 R85: x[7,5] <= 1
 R86: x[7,6] <= 1
 R87: x[7,7] <= 1
 R88: x[7,8] <= 1
Bounds
End
